
******************************************************************************
This program contains Ipopt, a library for large-scale nonlinear optimization.
 Ipopt is released as open source code under the Eclipse Public License (EPL).
         For more information visit http://projects.coin-or.org/Ipopt

This version of Ipopt was compiled from source code available at
    https://github.com/IDAES/Ipopt as part of the Institute for the Design of
    Advanced Energy Systems Process Systems Engineering Framework (IDAES PSE
    Framework) Copyright (c) 2018-2019. See https://github.com/IDAES/idaes-pse.

This version of Ipopt was compiled using HSL, a collection of Fortran codes
    for large-scale scientific computation.  All technical papers, sales and
    publicity material resulting from use of the HSL codes within IPOPT must
    contain the following acknowledgement:
        HSL, a collection of Fortran codes for large-scale scientific
        computation. See http://www.hsl.rl.ac.uk.
******************************************************************************

This is Ipopt version 3.13.2, running with linear solver ma27.

Number of nonzeros in equality constraint Jacobian...:      958
Number of nonzeros in inequality constraint Jacobian.:        0
Number of nonzeros in Lagrangian Hessian.............:      832

Total number of variables............................:      416
                     variables with only lower bounds:      128
                variables with lower and upper bounds:      224
                     variables with only upper bounds:        0
Total number of equality constraints.................:      415
Total number of inequality constraints...............:        0
        inequality constraints with only lower bounds:        0
   inequality constraints with lower and upper bounds:        0
        inequality constraints with only upper bounds:        0

iter    objective    inf_pr   inf_du lg(mu)  ||d||  lg(rg) alpha_du alpha_pr  ls
   0  0.0000000e+00 2.78e-01 5.55e-16  -1.0 0.00e+00    -  0.00e+00 0.00e+00   0
   1  2.4698060e-01 2.21e+00 8.36e+04  -1.0 1.17e+05    -  3.91e-01 3.18e-01h  1
   2  3.4353093e-01 1.99e+00 7.66e+04  -1.0 6.42e+04    -  8.10e-01 8.31e-02h  1
   3  7.7050075e-01 1.52e+00 5.88e+04  -1.0 1.09e+05    -  8.27e-01 2.31e-01h  1
   4  6.0462083e+00 6.72e-01 1.85e+04  -1.0 1.11e+05    -  2.58e-03 9.90e-01h  1
   5  6.7193699e+00 2.58e-01 1.02e+04  -1.0 1.09e+04    -  2.64e-01 9.90e-01h  1
   6  7.4597633e+00 1.07e-01 1.88e+05  -1.0 1.58e+04    -  1.03e-01 9.90e-01h  1
   7  8.1501093e+00 3.31e-02 6.90e+06  -1.0 1.38e+04    -  6.59e-01 9.90e-01h  1
   8  9.4356496e+00 1.02e-02 6.38e+08  -1.0 2.37e+04    -  6.83e-01 9.90e-01h  1
   9  1.0145116e+01 1.79e-03 1.20e+10  -1.0 1.24e+04    -  9.32e-01 9.90e-01h  1
iter    objective    inf_pr   inf_du lg(mu)  ||d||  lg(rg) alpha_du alpha_pr  ls
  10  9.1377674e+00 2.20e-03 1.98e+13  -1.0 4.56e+05    -  9.90e-01 3.83e-02f  3
  11  8.7876515e+00 1.98e-03 3.66e+13  -1.0 5.72e+04    -  9.90e-01 1.11e-01h  4
  12  8.2104640e+00 1.48e-03 4.58e+13  -1.0 4.36e+04    -  9.96e-01 2.47e-01h  3
  13  6.8192227e+00 1.27e-03 7.81e+11  -1.0 2.84e+04    -  1.00e+00 9.90e-01H  1
In iteration 13, 32 Slacks too small, adjusting variable bounds
  14  6.8466397e+00 2.99e-05 3.23e+13  -1.0 6.08e+02    -  1.00e+00 9.90e-01h  1
  15  6.8445117e+00 3.38e-08 4.69e-01  -1.0 4.63e+01    -  1.00e+00 1.00e+00h  1
  16  6.6548137e+00 5.84e-05 3.41e+13  -8.6 6.49e+03    -  9.88e-01 6.46e-01f  1
  17  6.6550688e+00 8.52e-09 1.52e+07  -8.6 1.17e+01    -  1.00e+00 1.00e+00h  1
  18  6.6550688e+00 1.38e-11 1.40e-09  -8.6 9.37e-05    -  1.00e+00 1.00e+00h  1

Number of Iterations....: 18

                                   (scaled)                 (unscaled)
Objective...............:   6.6550688281434649e+00    6.6550688281434649e+00
Dual infeasibility......:   1.3969838619232178e-09    1.3969838619232178e-09
Constraint violation....:   1.3763212791673141e-11    1.3763212791673141e-11
Complementarity.........:   2.5059111167698069e-09    2.5059111167698069e-09
Overall NLP error.......:   1.3763212791673141e-11    2.5059111167698069e-09


Number of objective function evaluations             = 35
Number of objective gradient evaluations             = 19
Number of equality constraint evaluations            = 35
Number of inequality constraint evaluations          = 0
Number of equality constraint Jacobian evaluations   = 19
Number of inequality constraint Jacobian evaluations = 0
Number of Lagrangian Hessian evaluations             = 18
Total CPU secs in IPOPT (w/o function evaluations)   =      0.040
Total CPU secs in NLP function evaluations           =      0.464

EXIT: Optimal Solution Found.
